c graph colorability of graph:
c random_regular_graph(5, 98).
c
c Generated with `cnfgen`
c (C) 2012-2016 Massimo Lauria <lauria.massimo@gmail.com>
c https://massimolauria.github.io/cnfgen
c
p cnf 294 1127
1 2 3 0
-1 -2 0
-1 -3 0
-2 -3 0
4 5 6 0
-4 -5 0
-4 -6 0
-5 -6 0
7 8 9 0
-7 -8 0
-7 -9 0
-8 -9 0
10 11 12 0
-10 -11 0
-10 -12 0
-11 -12 0
13 14 15 0
-13 -14 0
-13 -15 0
-14 -15 0
16 17 18 0
-16 -17 0
-16 -18 0
-17 -18 0
19 20 21 0
-19 -20 0
-19 -21 0
-20 -21 0
22 23 24 0
-22 -23 0
-22 -24 0
-23 -24 0
25 26 27 0
-25 -26 0
-25 -27 0
-26 -27 0
28 29 30 0
-28 -29 0
-28 -30 0
-29 -30 0
31 32 33 0
-31 -32 0
-31 -33 0
-32 -33 0
34 35 36 0
-34 -35 0
-34 -36 0
-35 -36 0
37 38 39 0
-37 -38 0
-37 -39 0
-38 -39 0
40 41 42 0
-40 -41 0
-40 -42 0
-41 -42 0
43 44 45 0
-43 -44 0
-43 -45 0
-44 -45 0
46 47 48 0
-46 -47 0
-46 -48 0
-47 -48 0
49 50 51 0
-49 -50 0
-49 -51 0
-50 -51 0
52 53 54 0
-52 -53 0
-52 -54 0
-53 -54 0
55 56 57 0
-55 -56 0
-55 -57 0
-56 -57 0
58 59 60 0
-58 -59 0
-58 -60 0
-59 -60 0
61 62 63 0
-61 -62 0
-61 -63 0
-62 -63 0
64 65 66 0
-64 -65 0
-64 -66 0
-65 -66 0
67 68 69 0
-67 -68 0
-67 -69 0
-68 -69 0
70 71 72 0
-70 -71 0
-70 -72 0
-71 -72 0
73 74 75 0
-73 -74 0
-73 -75 0
-74 -75 0
76 77 78 0
-76 -77 0
-76 -78 0
-77 -78 0
79 80 81 0
-79 -80 0
-79 -81 0
-80 -81 0
82 83 84 0
-82 -83 0
-82 -84 0
-83 -84 0
85 86 87 0
-85 -86 0
-85 -87 0
-86 -87 0
88 89 90 0
-88 -89 0
-88 -90 0
-89 -90 0
91 92 93 0
-91 -92 0
-91 -93 0
-92 -93 0
94 95 96 0
-94 -95 0
-94 -96 0
-95 -96 0
97 98 99 0
-97 -98 0
-97 -99 0
-98 -99 0
100 101 102 0
-100 -101 0
-100 -102 0
-101 -102 0
103 104 105 0
-103 -104 0
-103 -105 0
-104 -105 0
106 107 108 0
-106 -107 0
-106 -108 0
-107 -108 0
109 110 111 0
-109 -110 0
-109 -111 0
-110 -111 0
112 113 114 0
-112 -113 0
-112 -114 0
-113 -114 0
115 116 117 0
-115 -116 0
-115 -117 0
-116 -117 0
118 119 120 0
-118 -119 0
-118 -120 0
-119 -120 0
121 122 123 0
-121 -122 0
-121 -123 0
-122 -123 0
124 125 126 0
-124 -125 0
-124 -126 0
-125 -126 0
127 128 129 0
-127 -128 0
-127 -129 0
-128 -129 0
130 131 132 0
-130 -131 0
-130 -132 0
-131 -132 0
133 134 135 0
-133 -134 0
-133 -135 0
-134 -135 0
136 137 138 0
-136 -137 0
-136 -138 0
-137 -138 0
139 140 141 0
-139 -140 0
-139 -141 0
-140 -141 0
142 143 144 0
-142 -143 0
-142 -144 0
-143 -144 0
145 146 147 0
-145 -146 0
-145 -147 0
-146 -147 0
148 149 150 0
-148 -149 0
-148 -150 0
-149 -150 0
151 152 153 0
-151 -152 0
-151 -153 0
-152 -153 0
154 155 156 0
-154 -155 0
-154 -156 0
-155 -156 0
157 158 159 0
-157 -158 0
-157 -159 0
-158 -159 0
160 161 162 0
-160 -161 0
-160 -162 0
-161 -162 0
163 164 165 0
-163 -164 0
-163 -165 0
-164 -165 0
166 167 168 0
-166 -167 0
-166 -168 0
-167 -168 0
169 170 171 0
-169 -170 0
-169 -171 0
-170 -171 0
172 173 174 0
-172 -173 0
-172 -174 0
-173 -174 0
175 176 177 0
-175 -176 0
-175 -177 0
-176 -177 0
178 179 180 0
-178 -179 0
-178 -180 0
-179 -180 0
181 182 183 0
-181 -182 0
-181 -183 0
-182 -183 0
184 185 186 0
-184 -185 0
-184 -186 0
-185 -186 0
187 188 189 0
-187 -188 0
-187 -189 0
-188 -189 0
190 191 192 0
-190 -191 0
-190 -192 0
-191 -192 0
193 194 195 0
-193 -194 0
-193 -195 0
-194 -195 0
196 197 198 0
-196 -197 0
-196 -198 0
-197 -198 0
199 200 201 0
-199 -200 0
-199 -201 0
-200 -201 0
202 203 204 0
-202 -203 0
-202 -204 0
-203 -204 0
205 206 207 0
-205 -206 0
-205 -207 0
-206 -207 0
208 209 210 0
-208 -209 0
-208 -210 0
-209 -210 0
211 212 213 0
-211 -212 0
-211 -213 0
-212 -213 0
214 215 216 0
-214 -215 0
-214 -216 0
-215 -216 0
217 218 219 0
-217 -218 0
-217 -219 0
-218 -219 0
220 221 222 0
-220 -221 0
-220 -222 0
-221 -222 0
223 224 225 0
-223 -224 0
-223 -225 0
-224 -225 0
226 227 228 0
-226 -227 0
-226 -228 0
-227 -228 0
229 230 231 0
-229 -230 0
-229 -231 0
-230 -231 0
232 233 234 0
-232 -233 0
-232 -234 0
-233 -234 0
235 236 237 0
-235 -236 0
-235 -237 0
-236 -237 0
238 239 240 0
-238 -239 0
-238 -240 0
-239 -240 0
241 242 243 0
-241 -242 0
-241 -243 0
-242 -243 0
244 245 246 0
-244 -245 0
-244 -246 0
-245 -246 0
247 248 249 0
-247 -248 0
-247 -249 0
-248 -249 0
250 251 252 0
-250 -251 0
-250 -252 0
-251 -252 0
253 254 255 0
-253 -254 0
-253 -255 0
-254 -255 0
256 257 258 0
-256 -257 0
-256 -258 0
-257 -258 0
259 260 261 0
-259 -260 0
-259 -261 0
-260 -261 0
262 263 264 0
-262 -263 0
-262 -264 0
-263 -264 0
265 266 267 0
-265 -266 0
-265 -267 0
-266 -267 0
268 269 270 0
-268 -269 0
-268 -270 0
-269 -270 0
271 272 273 0
-271 -272 0
-271 -273 0
-272 -273 0
274 275 276 0
-274 -275 0
-274 -276 0
-275 -276 0
277 278 279 0
-277 -278 0
-277 -279 0
-278 -279 0
280 281 282 0
-280 -281 0
-280 -282 0
-281 -282 0
283 284 285 0
-283 -284 0
-283 -285 0
-284 -285 0
286 287 288 0
-286 -287 0
-286 -288 0
-287 -288 0
289 290 291 0
-289 -290 0
-289 -291 0
-290 -291 0
292 293 294 0
-292 -293 0
-292 -294 0
-293 -294 0
-1 -58 0
-2 -59 0
-3 -60 0
-1 -64 0
-2 -65 0
-3 -66 0
-1 -118 0
-2 -119 0
-3 -120 0
-1 -124 0
-2 -125 0
-3 -126 0
-1 -139 0
-2 -140 0
-3 -141 0
-4 -76 0
-5 -77 0
-6 -78 0
-4 -106 0
-5 -107 0
-6 -108 0
-4 -130 0
-5 -131 0
-6 -132 0
-4 -199 0
-5 -200 0
-6 -201 0
-4 -238 0
-5 -239 0
-6 -240 0
-7 -28 0
-8 -29 0
-9 -30 0
-7 -82 0
-8 -83 0
-9 -84 0
-7 -190 0
-8 -191 0
-9 -192 0
-7 -208 0
-8 -209 0
-9 -210 0
-7 -280 0
-8 -281 0
-9 -282 0
-10 -91 0
-11 -92 0
-12 -93 0
-10 -133 0
-11 -134 0
-12 -135 0
-10 -178 0
-11 -179 0
-12 -180 0
-10 -256 0
-11 -257 0
-12 -258 0
-10 -271 0
-11 -272 0
-12 -273 0
-13 -118 0
-14 -119 0
-15 -120 0
-13 -151 0
-14 -152 0
-15 -153 0
-13 -199 0
-14 -200 0
-15 -201 0
-13 -217 0
-14 -218 0
-15 -219 0
-13 -286 0
-14 -287 0
-15 -288 0
-16 -73 0
-17 -74 0
-18 -75 0
-16 -97 0
-17 -98 0
-18 -99 0
-16 -151 0
-17 -152 0
-18 -153 0
-16 -226 0
-17 -227 0
-18 -228 0
-16 -280 0
-17 -281 0
-18 -282 0
-19 -124 0
-20 -125 0
-21 -126 0
-19 -169 0
-20 -170 0
-21 -171 0
-19 -178 0
-20 -179 0
-21 -180 0
-19 -262 0
-20 -263 0
-21 -264 0
-19 -271 0
-20 -272 0
-21 -273 0
-22 -46 0
-23 -47 0
-24 -48 0
-22 -49 0
-23 -50 0
-24 -51 0
-22 -85 0
-23 -86 0
-24 -87 0
-22 -115 0
-23 -116 0
-24 -117 0
-22 -265 0
-23 -266 0
-24 -267 0
-25 -46 0
-26 -47 0
-27 -48 0
-25 -121 0
-26 -122 0
-27 -123 0
-25 -130 0
-26 -131 0
-27 -132 0
-25 -256 0
-26 -257 0
-27 -258 0
-25 -283 0
-26 -284 0
-27 -285 0
-28 -67 0
-29 -68 0
-30 -69 0
-28 -97 0
-29 -98 0
-30 -99 0
-28 -205 0
-29 -206 0
-30 -207 0
-28 -250 0
-29 -251 0
-30 -252 0
-31 -79 0
-32 -80 0
-33 -81 0
-31 -163 0
-32 -164 0
-33 -165 0
-31 -214 0
-32 -215 0
-33 -216 0
-31 -235 0
-32 -236 0
-33 -237 0
-31 -271 0
-32 -272 0
-33 -273 0
-34 -46 0
-35 -47 0
-36 -48 0
-34 -49 0
-35 -50 0
-36 -51 0
-34 -85 0
-35 -86 0
-36 -87 0
-34 -103 0
-35 -104 0
-36 -105 0
-34 -289 0
-35 -290 0
-36 -291 0
-37 -52 0
-38 -53 0
-39 -54 0
-37 -55 0
-38 -56 0
-39 -57 0
-37 -82 0
-38 -83 0
-39 -84 0
-37 -127 0
-38 -128 0
-39 -129 0
-37 -133 0
-38 -134 0
-39 -135 0
-40 -70 0
-41 -71 0
-42 -72 0
-40 -118 0
-41 -119 0
-42 -120 0
-40 -148 0
-41 -149 0
-42 -150 0
-40 -217 0
-41 -218 0
-42 -219 0
-40 -244 0
-41 -245 0
-42 -246 0
-43 -163 0
-44 -164 0
-45 -165 0
-43 -184 0
-44 -185 0
-45 -186 0
-43 -190 0
-44 -191 0
-45 -192 0
-43 -235 0
-44 -236 0
-45 -237 0
-43 -268 0
-44 -269 0
-45 -270 0
-46 -142 0
-47 -143 0
-48 -144 0
-46 -259 0
-47 -260 0
-48 -261 0
-49 -94 0
-50 -95 0
-51 -96 0
-49 -124 0
-50 -125 0
-51 -126 0
-49 -193 0
-50 -194 0
-51 -195 0
-52 -166 0
-53 -167 0
-54 -168 0
-52 -175 0
-53 -176 0
-54 -177 0
-52 -229 0
-53 -230 0
-54 -231 0
-52 -283 0
-53 -284 0
-54 -285 0
-55 -139 0
-56 -140 0
-57 -141 0
-55 -211 0
-56 -212 0
-57 -213 0
-55 -253 0
-56 -254 0
-57 -255 0
-55 -271 0
-56 -272 0
-57 -273 0
-58 -94 0
-59 -95 0
-60 -96 0
-58 -100 0
-59 -101 0
-60 -102 0
-58 -154 0
-59 -155 0
-60 -156 0
-58 -241 0
-59 -242 0
-60 -243 0
-61 -115 0
-62 -116 0
-63 -117 0
-61 -148 0
-62 -149 0
-63 -150 0
-61 -202 0
-62 -203 0
-63 -204 0
-61 -220 0
-62 -221 0
-63 -222 0
-61 -274 0
-62 -275 0
-63 -276 0
-64 -91 0
-65 -92 0
-66 -93 0
-64 -205 0
-65 -206 0
-66 -207 0
-64 -283 0
-65 -284 0
-66 -285 0
-64 -286 0
-65 -287 0
-66 -288 0
-67 -70 0
-68 -71 0
-69 -72 0
-67 -88 0
-68 -89 0
-69 -90 0
-67 -145 0
-68 -146 0
-69 -147 0
-67 -184 0
-68 -185 0
-69 -186 0
-70 -136 0
-71 -137 0
-72 -138 0
-70 -151 0
-71 -152 0
-72 -153 0
-70 -259 0
-71 -260 0
-72 -261 0
-73 -109 0
-74 -110 0
-75 -111 0
-73 -136 0
-74 -137 0
-75 -138 0
-73 -175 0
-74 -176 0
-75 -177 0
-73 -214 0
-74 -215 0
-75 -216 0
-76 -79 0
-77 -80 0
-78 -81 0
-76 -103 0
-77 -104 0
-78 -105 0
-76 -172 0
-77 -173 0
-78 -174 0
-76 -229 0
-77 -230 0
-78 -231 0
-79 -121 0
-80 -122 0
-81 -123 0
-79 -124 0
-80 -125 0
-81 -126 0
-79 -229 0
-80 -230 0
-81 -231 0
-82 -118 0
-83 -119 0
-84 -120 0
-82 -148 0
-83 -149 0
-84 -150 0
-82 -244 0
-83 -245 0
-84 -246 0
-85 -133 0
-86 -134 0
-87 -135 0
-85 -145 0
-86 -146 0
-87 -147 0
-85 -292 0
-86 -293 0
-87 -294 0
-88 -91 0
-89 -92 0
-90 -93 0
-88 -112 0
-89 -113 0
-90 -114 0
-88 -193 0
-89 -194 0
-90 -195 0
-88 -223 0
-89 -224 0
-90 -225 0
-91 -130 0
-92 -131 0
-93 -132 0
-91 -178 0
-92 -179 0
-93 -180 0
-94 -151 0
-95 -152 0
-96 -153 0
-94 -172 0
-95 -173 0
-96 -174 0
-94 -247 0
-95 -248 0
-96 -249 0
-97 -223 0
-98 -224 0
-99 -225 0
-97 -238 0
-98 -239 0
-99 -240 0
-97 -286 0
-98 -287 0
-99 -288 0
-100 -163 0
-101 -164 0
-102 -165 0
-100 -175 0
-101 -176 0
-102 -177 0
-100 -202 0
-101 -203 0
-102 -204 0
-100 -217 0
-101 -218 0
-102 -219 0
-103 -109 0
-104 -110 0
-105 -111 0
-103 -169 0
-104 -170 0
-105 -171 0
-103 -265 0
-104 -266 0
-105 -267 0
-106 -184 0
-107 -185 0
-108 -186 0
-106 -223 0
-107 -224 0
-108 -225 0
-106 -232 0
-107 -233 0
-108 -234 0
-106 -256 0
-107 -257 0
-108 -258 0
-109 -121 0
-110 -122 0
-111 -123 0
-109 -229 0
-110 -230 0
-111 -231 0
-109 -253 0
-110 -254 0
-111 -255 0
-112 -226 0
-113 -227 0
-114 -228 0
-112 -235 0
-113 -236 0
-114 -237 0
-112 -262 0
-113 -263 0
-114 -264 0
-112 -271 0
-113 -272 0
-114 -273 0
-115 -118 0
-116 -119 0
-117 -120 0
-115 -178 0
-116 -179 0
-117 -180 0
-115 -241 0
-116 -242 0
-117 -243 0
-121 -187 0
-122 -188 0
-123 -189 0
-121 -247 0
-122 -248 0
-123 -249 0
-124 -181 0
-125 -182 0
-126 -183 0
-127 -130 0
-128 -131 0
-129 -132 0
-127 -166 0
-128 -167 0
-129 -168 0
-127 -220 0
-128 -221 0
-129 -222 0
-127 -244 0
-128 -245 0
-129 -246 0
-130 -187 0
-131 -188 0
-132 -189 0
-133 -247 0
-134 -248 0
-135 -249 0
-133 -253 0
-134 -254 0
-135 -255 0
-136 -160 0
-137 -161 0
-138 -162 0
-136 -193 0
-137 -194 0
-138 -195 0
-136 -196 0
-137 -197 0
-138 -198 0
-139 -205 0
-140 -206 0
-141 -207 0
-139 -244 0
-140 -245 0
-141 -246 0
-139 -286 0
-140 -287 0
-141 -288 0
-142 -172 0
-143 -173 0
-144 -174 0
-142 -208 0
-143 -209 0
-144 -210 0
-142 -223 0
-143 -224 0
-144 -225 0
-142 -232 0
-143 -233 0
-144 -234 0
-145 -232 0
-146 -233 0
-147 -234 0
-145 -235 0
-146 -236 0
-147 -237 0
-145 -244 0
-146 -245 0
-147 -246 0
-148 -220 0
-149 -221 0
-150 -222 0
-148 -223 0
-149 -224 0
-150 -225 0
-151 -211 0
-152 -212 0
-153 -213 0
-154 -214 0
-155 -215 0
-156 -216 0
-154 -232 0
-155 -233 0
-156 -234 0
-154 -241 0
-155 -242 0
-156 -243 0
-154 -265 0
-155 -266 0
-156 -267 0
-157 -169 0
-158 -170 0
-159 -171 0
-157 -199 0
-158 -200 0
-159 -201 0
-157 -253 0
-158 -254 0
-159 -255 0
-157 -283 0
-158 -284 0
-159 -285 0
-157 -289 0
-158 -290 0
-159 -291 0
-160 -172 0
-161 -173 0
-162 -174 0
-160 -187 0
-161 -188 0
-162 -189 0
-160 -220 0
-161 -221 0
-162 -222 0
-160 -241 0
-161 -242 0
-162 -243 0
-163 -166 0
-164 -167 0
-165 -168 0
-163 -256 0
-164 -257 0
-165 -258 0
-166 -262 0
-167 -263 0
-168 -264 0
-166 -292 0
-167 -293 0
-168 -294 0
-169 -202 0
-170 -203 0
-171 -204 0
-169 -277 0
-170 -278 0
-171 -279 0
-172 -205 0
-173 -206 0
-174 -207 0
-175 -202 0
-176 -203 0
-177 -204 0
-175 -277 0
-176 -278 0
-177 -279 0
-178 -196 0
-179 -197 0
-180 -198 0
-181 -208 0
-182 -209 0
-183 -210 0
-181 -226 0
-182 -227 0
-183 -228 0
-181 -265 0
-182 -266 0
-183 -267 0
-181 -280 0
-182 -281 0
-183 -282 0
-184 -211 0
-185 -212 0
-186 -213 0
-184 -247 0
-185 -248 0
-186 -249 0
-187 -217 0
-188 -218 0
-189 -219 0
-187 -292 0
-188 -293 0
-189 -294 0
-190 -253 0
-191 -254 0
-192 -255 0
-190 -277 0
-191 -278 0
-192 -279 0
-190 -289 0
-191 -290 0
-192 -291 0
-193 -259 0
-194 -260 0
-195 -261 0
-193 -268 0
-194 -269 0
-195 -270 0
-196 -208 0
-197 -209 0
-198 -210 0
-196 -259 0
-197 -260 0
-198 -261 0
-196 -277 0
-197 -278 0
-198 -279 0
-199 -214 0
-200 -215 0
-201 -216 0
-199 -241 0
-200 -242 0
-201 -243 0
-202 -238 0
-203 -239 0
-204 -240 0
-205 -229 0
-206 -230 0
-207 -231 0
-208 -274 0
-209 -275 0
-210 -276 0
-211 -250 0
-212 -251 0
-213 -252 0
-211 -289 0
-212 -290 0
-213 -291 0
-214 -268 0
-215 -269 0
-216 -270 0
-217 -289 0
-218 -290 0
-219 -291 0
-220 -265 0
-221 -266 0
-222 -267 0
-226 -235 0
-227 -236 0
-228 -237 0
-226 -283 0
-227 -284 0
-228 -285 0
-232 -259 0
-233 -260 0
-234 -261 0
-238 -256 0
-239 -257 0
-240 -258 0
-238 -268 0
-239 -269 0
-240 -270 0
-247 -262 0
-248 -263 0
-249 -264 0
-250 -274 0
-251 -275 0
-252 -276 0
-250 -277 0
-251 -278 0
-252 -279 0
-250 -292 0
-251 -293 0
-252 -294 0
-262 -268 0
-263 -269 0
-264 -270 0
-274 -280 0
-275 -281 0
-276 -282 0
-274 -286 0
-275 -287 0
-276 -288 0
-280 -292 0
-281 -293 0
-282 -294 0
